Total weight: 1313.5049134364663
Route 1: 0 100 2 6 7 8 46 4 45 5 3 1 0 
Route 2: 0 53 14 15 11 9 13 10 12 0 
Route 3: 0 47 17 16 97 24 22 19 49 20 0 
Route 4: 0 65 83 57 25 23 21 48 18 0 
Route 5: 0 34 31 29 27 26 28 30 32 33 50 92 0 
Route 6: 0 41 38 44 43 40 36 35 37 39 42 0 
Route 7: 0 76 89 63 85 84 95 91 0 
Route 8: 0 68 70 69 82 99 87 59 86 52 0 
Route 9: 0 96 93 71 72 54 81 61 0 
Route 10: 0 66 56 51 77 75 58 74 0 
Route 11: 0 80 94 67 62 64 0 
Route 12: 0 90 98 78 73 79 60 88 55 0 
